Test: battleship-16-31-sat.cnf
Options: -no-inverting-opt -sym-usage-var-bump
WARNING: for repeatability, setting FPU to use double precision
============================[ Problem Statistics ]=============================
|                                                                             |
|  Number of symmetries:           25                                         |
|  Number of invertingSyms:         0                                         |
|  Number of variables:           496                                         |
|  Number of clauses:            3976                                         |
|  Parse time:                   0.00 s                                       |
|                                                                             |
============================[ Search Statistics ]==============================
| Conflicts |          ORIGINAL         |          LEARNT          | Progress |
|           |    Vars  Clauses Literals |    Limit  Clauses Lit/Cl |          |
===============================================================================
|       100 |     496     3976    15376 |     1457      131    238 |  0.000 % |
|       250 |     496     3976    15376 |     1603      307    174 |  0.000 % |
|       475 |     496     3976    15376 |     1764      571    157 |  0.000 % |
|       812 |     496     3976    15376 |     1940      977    152 |  0.000 % |
|      1318 |     496     3976    15376 |     2134     1594    154 |  0.000 % |
|      2077 |     496     3976    15376 |     2347     1395    153 |  0.000 % |
|      3216 |     496     3976    15376 |     2582     1349    155 |  0.000 % |
|      4924 |     496     3976    15376 |     2840     1987    150 |  0.000 % |
|      7486 |     496     3976    15376 |     3125     1784    201 |  0.000 % |
|     11330 |     496     3976    15376 |     3437     1676    160 |  0.000 % |
|     17096 |     496     3976    15376 |     3781     3057    218 |  0.000 % |
|     25745 |     496     3976    15376 |     4159     3518    147 |  0.000 % |
|     38719 |     496     3976    15376 |     4575     2956    189 |  0.000 % |
|     58180 |     496     3976    15376 |     5032     2376    156 |  0.000 % |
|     87372 |     496     3976    15376 |     5536     4965    234 |  0.000 % |
|    131161 |     496     3976    15376 |     6089     4337    176 |  0.000 % |
|    196845 |     496     3976    15376 |     6698     5622    150 |  0.000 % |
|    295371 |     496     3976    15376 |     7368     3575    229 |  0.000 % |
|    443160 |     496     3976    15376 |     8105     6494    247 |  0.000 % |
|    664843 |     496     3976    15376 |     8916     6300    155 |  0.000 % |
|    997368 |     496     3976    15376 |     9807     8521    235 |  0.000 % |
===============================================================================
restarts              : 2047
conflicts             : 1054526        (12419 /sec)
symconflicts          : 38763          (457 /sec)
decisions             : 2488832        (0.00 % random) (29310 /sec)
propagations          : 25890806       (304909 /sec)
sympropagations       : 177277         (2088 /sec)
conflict literals     : 216427615      (3.02 % deleted)
literals     : 216427615      (3.02 % deleted)

HEURISTIC USAGES
random                : 0           
activity w/ lookahead : 0           
activity no lookahead : 0           
original sp           : 2488831     
sym count             : 0           

Memory used           : 34.00 MB
CPU time              : 84.9133 s

SATISFIABLE
